NAME          DCAP_2_4_3_300_SS36
ROWS
 N  OBJ
 L  CON1
 L  CON2
 L  CON3
 L  CON4
 L  CON5
 L  CON6
 L  CON7
 L  CON8
 L  CON9
 L  CON10
 L  CON11
 L  CON12
 E  CON13
 E  CON14
 E  CON15
 E  CON16
 E  CON17
 E  CON18
 E  CON19
 E  CON20
 E  CON21
 E  CON22
 E  CON23
 E  CON24
COLUMNS
    x[1,1]    OBJ       6.180167      CON1      1.000000    
    x[1,1]    CON7      -1.000000     CON8      -1.000000   
    x[1,1]    CON9      -1.000000   
    x[1,2]    OBJ       6.563535      CON2      1.000000    
    x[1,2]    CON8      -1.000000     CON9      -1.000000   
    x[1,3]    OBJ       7.443064      CON3      1.000000    
    x[1,3]    CON9      -1.000000   
    x[2,1]    OBJ       6.732585      CON4      1.000000    
    x[2,1]    CON10     -1.000000     CON11     -1.000000   
    x[2,1]    CON12     -1.000000   
    x[2,2]    OBJ       5.039546      CON5      1.000000    
    x[2,2]    CON11     -1.000000     CON12     -1.000000   
    x[2,3]    OBJ       6.054841      CON6      1.000000    
    x[2,3]    CON12     -1.000000   
    MARKER    'MARKER'                'INTORG'
    u[1,1]    OBJ       48.076654     CON1      -1.000000   
    u[1,2]    OBJ       20.066487     CON2      -1.000000   
    u[1,3]    OBJ       32.230043     CON3      -1.000000   
    u[2,1]    OBJ       49.996186     CON4      -1.000000   
    u[2,2]    OBJ       49.466655     CON5      -1.000000   
    u[2,3]    OBJ       27.484319     CON6      -1.000000   
    y[1,1,1]  OBJ       6.477158      CON7      1.260511    
    y[1,1,1]  CON13     1.000000    
    y[1,1,2]  OBJ       7.287809      CON8      0.956824    
    y[1,1,2]  CON14     1.000000    
    y[1,1,3]  OBJ       7.212769      CON9      1.055611    
    y[1,1,3]  CON15     1.000000    
    y[1,2,1]  OBJ       9.424673      CON7      1.240241    
    y[1,2,1]  CON16     1.000000    
    y[1,2,2]  OBJ       9.387029      CON8      0.779656    
    y[1,2,2]  CON17     1.000000    
    y[1,2,3]  OBJ       6.923086      CON9      0.936958    
    y[1,2,3]  CON18     1.000000    
    y[1,3,1]  OBJ       5.064275      CON7      1.112955    
    y[1,3,1]  CON19     1.000000    
    y[1,3,2]  OBJ       8.151576      CON8      1.092076    
    y[1,3,2]  CON20     1.000000    
    y[1,3,3]  OBJ       8.147817      CON9      1.065583    
    y[1,3,3]  CON21     1.000000    
    y[1,4,1]  OBJ       6.279137      CON7      0.835415    
    y[1,4,1]  CON22     1.000000    
    y[1,4,2]  OBJ       9.325290      CON8      0.858719    
    y[1,4,2]  CON23     1.000000    
    y[1,4,3]  OBJ       7.345497      CON9      1.479370    
    y[1,4,3]  CON24     1.000000    
    y[2,1,1]  OBJ       9.631298      CON10     1.260511    
    y[2,1,1]  CON13     1.000000    
    y[2,1,2]  OBJ       8.634853      CON11     0.956824    
    y[2,1,2]  CON14     1.000000    
    y[2,1,3]  OBJ       9.118541      CON12     1.055611    
    y[2,1,3]  CON15     1.000000    
    y[2,2,1]  OBJ       9.775676      CON10     1.240241    
    y[2,2,1]  CON16     1.000000    
    y[2,2,2]  OBJ       9.092898      CON11     0.779656    
    y[2,2,2]  CON17     1.000000    
    y[2,2,3]  OBJ       9.263497      CON12     0.936958    
    y[2,2,3]  CON18     1.000000    
    y[2,3,1]  OBJ       8.504826      CON10     1.112955    
    y[2,3,1]  CON19     1.000000    
    y[2,3,2]  OBJ       6.709405      CON11     1.092076    
    y[2,3,2]  CON20     1.000000    
    y[2,3,3]  OBJ       5.985537      CON12     1.065583    
    y[2,3,3]  CON21     1.000000    
    y[2,4,1]  OBJ       5.813974      CON10     0.835415    
    y[2,4,1]  CON22     1.000000    
    y[2,4,2]  OBJ       7.480350      CON11     0.858719    
    y[2,4,2]  CON23     1.000000    
    y[2,4,3]  OBJ       6.453688      CON12     1.479370    
    y[2,4,3]  CON24     1.000000    
    z[1,1]    OBJ       622.164521    CON13     1.000000    
    z[1,2]    OBJ       725.310318    CON14     1.000000    
    z[1,3]    OBJ       652.779626    CON15     1.000000    
    z[2,1]    OBJ       941.671098    CON16     1.000000    
    z[2,2]    OBJ       573.026121    CON17     1.000000    
    z[2,3]    OBJ       718.755209    CON18     1.000000    
    z[3,1]    OBJ       553.394041    CON19     1.000000    
    z[3,2]    OBJ       934.217594    CON20     1.000000    
    z[3,3]    OBJ       545.044464    CON21     1.000000    
    z[4,1]    OBJ       821.873169    CON22     1.000000    
    z[4,2]    OBJ       848.251475    CON23     1.000000    
    z[4,3]    OBJ       908.439267    CON24     1.000000    
    MARKER    'MARKER'                 'INTEND'
RHS
    RHS       CON1      -0.000000     CON2      -0.000000   
    RHS       CON3      -0.000000     CON4      -0.000000   
    RHS       CON5      -0.000000     CON6      -0.000000   
    RHS       CON7      -0.000000     CON8      -0.000000   
    RHS       CON9      -0.000000     CON10     -0.000000   
    RHS       CON11     -0.000000     CON12     -0.000000   
    RHS       CON13     1.000000      CON14     1.000000    
    RHS       CON15     1.000000      CON16     1.000000    
    RHS       CON17     1.000000      CON18     1.000000    
    RHS       CON19     1.000000      CON20     1.000000    
    RHS       CON21     1.000000      CON22     1.000000    
    RHS       CON23     1.000000      CON24     1.000000    
BOUNDS
 BV BOUND     u[1,1]  
 BV BOUND     u[1,2]  
 BV BOUND     u[1,3]  
 BV BOUND     u[2,1]  
 BV BOUND     u[2,2]  
 BV BOUND     u[2,3]  
 BV BOUND     y[1,1,1]
 BV BOUND     y[1,1,2]
 BV BOUND     y[1,1,3]
 BV BOUND     y[1,2,1]
 BV BOUND     y[1,2,2]
 BV BOUND     y[1,2,3]
 BV BOUND     y[1,3,1]
 BV BOUND     y[1,3,2]
 BV BOUND     y[1,3,3]
 BV BOUND     y[1,4,1]
 BV BOUND     y[1,4,2]
 BV BOUND     y[1,4,3]
 BV BOUND     y[2,1,1]
 BV BOUND     y[2,1,2]
 BV BOUND     y[2,1,3]
 BV BOUND     y[2,2,1]
 BV BOUND     y[2,2,2]
 BV BOUND     y[2,2,3]
 BV BOUND     y[2,3,1]
 BV BOUND     y[2,3,2]
 BV BOUND     y[2,3,3]
 BV BOUND     y[2,4,1]
 BV BOUND     y[2,4,2]
 BV BOUND     y[2,4,3]
 BV BOUND     z[1,1]  
 BV BOUND     z[1,2]  
 BV BOUND     z[1,3]  
 BV BOUND     z[2,1]  
 BV BOUND     z[2,2]  
 BV BOUND     z[2,3]  
 BV BOUND     z[3,1]  
 BV BOUND     z[3,2]  
 BV BOUND     z[3,3]  
 BV BOUND     z[4,1]  
 BV BOUND     z[4,2]  
 BV BOUND     z[4,3]  
ENDATA
